logs/drand/qp/drand-05-075-1.lp
\ LP format - for model browsing. Use MPS format to capture full model detail.
Minimize
  x0 + x1 + x2 + x3 + x4 + x5 + x6 + x7 + x8 + x9 + x10 + x11 + x12 + x13
   + x14 + x15 + x16 + x17 + x18 + x19 + x20 + x21 + x22 + x23 + x24 + x25
   + x26 + x27 + x28 + x29 + x30 + x31 + x32 + x33 + x34 + x35 + x36 + x37
   + x38 + x39 + x40 + x41 + x42 + x43 + x44 + x45 + x46 + x47 + x48 + x49
   + x50 + x51 + x52 + x53 + x54 + x55 + x56 + x57 + x58 + x59 + x60 + x61
   + x62 + x63 + x64 + x65 + x66 + x67 + x68 + x69 + x70 + x71 + x72 + x73
   + x74 + x75 + x76 + x77 + x78 + x79 + x80 + x81 + x82 + x83 + x84 + x85
   + x86 + x87 + x88 + x89 + x90 + x91 + x92 + x93 + x94 + x95 + x96 + x97
   + x98 + x99 + x100 + x101 + x102 + x103 + x104 + x105 + x106 + x107
   + x108 + x109 + x110 + x111 + x112 + x113 + x114 + x115 + x116 + x117
   + x118 + x119 + x120 + x121 + x122 + x123 + x124 + x125 + x126 + x127
   + x128 + x129 + x130 + x131 + x132 + x133 + x134 + x135 + x136 + x137
   + x138 + x139 + x140 + x141 + x142 + x143 + x144 + x145 + x146
Subject To
 R0: x0 = 1
 qc0: [ x0 * x2 + x1 * x3 + x2 * x4 + x3 * x5 + x4 * x6 + x5 * x7 + x6 * x8
   + x7 * x9 + x8 * x10 + x9 * x11 + x10 * x12 + x11 * x13 + x12 * x14
   + x13 * x15 + x14 * x16 + x15 * x17 + x16 * x18 + x17 * x19 + x18 * x20
   + x19 * x21 + x20 * x22 + x21 * x23 + x22 * x24 + x23 * x25 + x24 * x26
   + x25 * x27 + x26 * x28 + x27 * x29 + x28 * x30 + x29 * x31 + x30 * x32
   + x31 * x33 + x32 * x34 + x33 * x35 + x34 * x36 + x35 * x37 + x36 * x38
   + x37 * x39 + x38 * x40 + x39 * x41 + x40 * x42 + x41 * x43 + x42 * x44
   + x43 * x45 + x44 * x46 + x45 * x47 + x46 * x48 + x47 * x49 + x48 * x50
   + x49 * x51 + x50 * x52 + x51 * x53 + x52 * x54 + x53 * x55 + x54 * x56
   + x55 * x57 + x56 * x58 + x57 * x59 + x58 * x60 + x59 * x61 + x60 * x62
   + x61 * x63 + x62 * x64 + x63 * x65 + x64 * x66 + x65 * x67 + x66 * x68
   + x67 * x69 + x68 * x70 + x69 * x71 + x70 * x72 + x71 * x73 + x72 * x74
   + x73 * x75 + x74 * x76 + x75 * x77 + x76 * x78 + x77 * x79 + x78 * x80
   + x79 * x81 + x80 * x82 + x81 * x83 + x82 * x84 + x83 * x85 + x84 * x86
   + x85 * x87 + x86 * x88 + x87 * x89 + x88 * x90 + x89 * x91 + x90 * x92
   + x91 * x93 + x92 * x94 + x93 * x95 + x94 * x96 + x95 * x97 + x96 * x98
   + x97 * x99 + x98 * x100 + x99 * x101 + x100 * x102 + x101 * x103
   + x102 * x104 + x103 * x105 + x104 * x106 + x105 * x107 + x106 * x108
   + x107 * x109 + x108 * x110 + x109 * x111 + x110 * x112 + x111 * x113
   + x112 * x114 + x113 * x115 + x114 * x116 + x115 * x117 + x116 * x118
   + x117 * x119 + x118 * x120 + x119 * x121 + x120 * x122 + x121 * x123
   + x122 * x124 + x123 * x125 + x124 * x126 + x125 * x127 + x126 * x128
   + x127 * x129 + x128 * x130 + x129 * x131 + x130 * x132 + x131 * x133
   + x132 * x134 + x133 * x135 + x134 * x136 + x135 * x137 + x136 * x138
   + x137 * x139 + x138 * x140 + x139 * x141 + x140 * x142 + x141 * x143
   + x142 * x144 + x143 * x145 + x144 * x146 ] >= 1
 qc1: [ x0 * x16 + x1 * x17 + x2 * x18 + x3 * x19 + x4 * x20 + x5 * x21
   + x6 * x22 + x7 * x23 + x8 * x24 + x9 * x25 + x10 * x26 + x11 * x27
   + x12 * x28 + x13 * x29 + x14 * x30 + x15 * x31 + x16 * x32 + x17 * x33
   + x18 * x34 + x19 * x35 + x20 * x36 + x21 * x37 + x22 * x38 + x23 * x39
   + x24 * x40 + x25 * x41 + x26 * x42 + x27 * x43 + x28 * x44 + x29 * x45
   + x30 * x46 + x31 * x47 + x32 * x48 + x33 * x49 + x34 * x50 + x35 * x51
   + x36 * x52 + x37 * x53 + x38 * x54 + x39 * x55 + x40 * x56 + x41 * x57
   + x42 * x58 + x43 * x59 + x44 * x60 + x45 * x61 + x46 * x62 + x47 * x63
   + x48 * x64 + x49 * x65 + x50 * x66 + x51 * x67 + x52 * x68 + x53 * x69
   + x54 * x70 + x55 * x71 + x56 * x72 + x57 * x73 + x58 * x74 + x59 * x75
   + x60 * x76 + x61 * x77 + x62 * x78 + x63 * x79 + x64 * x80 + x65 * x81
   + x66 * x82 + x67 * x83 + x68 * x84 + x69 * x85 + x70 * x86 + x71 * x87
   + x72 * x88 + x73 * x89 + x74 * x90 + x75 * x91 + x76 * x92 + x77 * x93
   + x78 * x94 + x79 * x95 + x80 * x96 + x81 * x97 + x82 * x98 + x83 * x99
   + x84 * x100 + x85 * x101 + x86 * x102 + x87 * x103 + x88 * x104
   + x89 * x105 + x90 * x106 + x91 * x107 + x92 * x108 + x93 * x109
   + x94 * x110 + x95 * x111 + x96 * x112 + x97 * x113 + x98 * x114
   + x99 * x115 + x100 * x116 + x101 * x117 + x102 * x118 + x103 * x119
   + x104 * x120 + x105 * x121 + x106 * x122 + x107 * x123 + x108 * x124
   + x109 * x125 + x110 * x126 + x111 * x127 + x112 * x128 + x113 * x129
   + x114 * x130 + x115 * x131 + x116 * x132 + x117 * x133 + x118 * x134
   + x119 * x135 + x120 * x136 + x121 * x137 + x122 * x138 + x123 * x139
   + x124 * x140 + x125 * x141 + x126 * x142 + x127 * x143 + x128 * x144
   + x129 * x145 + x130 * x146 ] >= 1
 qc2: [ x0 * x23 + x1 * x24 + x2 * x25 + x3 * x26 + x4 * x27 + x5 * x28
   + x6 * x29 + x7 * x30 + x8 * x31 + x9 * x32 + x10 * x33 + x11 * x34
   + x12 * x35 + x13 * x36 + x14 * x37 + x15 * x38 + x16 * x39 + x17 * x40
   + x18 * x41 + x19 * x42 + x20 * x43 + x21 * x44 + x22 * x45 + x23 * x46
   + x24 * x47 + x25 * x48 + x26 * x49 + x27 * x50 + x28 * x51 + x29 * x52
   + x30 * x53 + x31 * x54 + x32 * x55 + x33 * x56 + x34 * x57 + x35 * x58
   + x36 * x59 + x37 * x60 + x38 * x61 + x39 * x62 + x40 * x63 + x41 * x64
   + x42 * x65 + x43 * x66 + x44 * x67 + x45 * x68 + x46 * x69 + x47 * x70
   + x48 * x71 + x49 * x72 + x50 * x73 + x51 * x74 + x52 * x75 + x53 * x76
   + x54 * x77 + x55 * x78 + x56 * x79 + x57 * x80 + x58 * x81 + x59 * x82
   + x60 * x83 + x61 * x84 + x62 * x85 + x63 * x86 + x64 * x87 + x65 * x88
   + x66 * x89 + x67 * x90 + x68 * x91 + x69 * x92 + x70 * x93 + x71 * x94
   + x72 * x95 + x73 * x96 + x74 * x97 + x75 * x98 + x76 * x99 + x77 * x100
   + x78 * x101 + x79 * x102 + x80 * x103 + x81 * x104 + x82 * x105
   + x83 * x106 + x84 * x107 + x85 * x108 + x86 * x109 + x87 * x110
   + x88 * x111 + x89 * x112 + x90 * x113 + x91 * x114 + x92 * x115
   + x93 * x116 + x94 * x117 + x95 * x118 + x96 * x119 + x97 * x120
   + x98 * x121 + x99 * x122 + x100 * x123 + x101 * x124 + x102 * x125
   + x103 * x126 + x104 * x127 + x105 * x128 + x106 * x129 + x107 * x130
   + x108 * x131 + x109 * x132 + x110 * x133 + x111 * x134 + x112 * x135
   + x113 * x136 + x114 * x137 + x115 * x138 + x116 * x139 + x117 * x140
   + x118 * x141 + x119 * x142 + x120 * x143 + x121 * x144 + x122 * x145
   + x123 * x146 ] >= 1
 qc3: [ x0 * x31 + x1 * x32 + x2 * x33 + x3 * x34 + x4 * x35 + x5 * x36
   + x6 * x37 + x7 * x38 + x8 * x39 + x9 * x40 + x10 * x41 + x11 * x42
   + x12 * x43 + x13 * x44 + x14 * x45 + x15 * x46 + x16 * x47 + x17 * x48
   + x18 * x49 + x19 * x50 + x20 * x51 + x21 * x52 + x22 * x53 + x23 * x54
   + x24 * x55 + x25 * x56 + x26 * x57 + x27 * x58 + x28 * x59 + x29 * x60
   + x30 * x61 + x31 * x62 + x32 * x63 + x33 * x64 + x34 * x65 + x35 * x66
   + x36 * x67 + x37 * x68 + x38 * x69 + x39 * x70 + x40 * x71 + x41 * x72
   + x42 * x73 + x43 * x74 + x44 * x75 + x45 * x76 + x46 * x77 + x47 * x78
   + x48 * x79 + x49 * x80 + x50 * x81 + x51 * x82 + x52 * x83 + x53 * x84
   + x54 * x85 + x55 * x86 + x56 * x87 + x57 * x88 + x58 * x89 + x59 * x90
   + x60 * x91 + x61 * x92 + x62 * x93 + x63 * x94 + x64 * x95 + x65 * x96
   + x66 * x97 + x67 * x98 + x68 * x99 + x69 * x100 + x70 * x101
   + x71 * x102 + x72 * x103 + x73 * x104 + x74 * x105 + x75 * x106
   + x76 * x107 + x77 * x108 + x78 * x109 + x79 * x110 + x80 * x111
   + x81 * x112 + x82 * x113 + x83 * x114 + x84 * x115 + x85 * x116
   + x86 * x117 + x87 * x118 + x88 * x119 + x89 * x120 + x90 * x121
   + x91 * x122 + x92 * x123 + x93 * x124 + x94 * x125 + x95 * x126
   + x96 * x127 + x97 * x128 + x98 * x129 + x99 * x130 + x100 * x131
   + x101 * x132 + x102 * x133 + x103 * x134 + x104 * x135 + x105 * x136
   + x106 * x137 + x107 * x138 + x108 * x139 + x109 * x140 + x110 * x141
   + x111 * x142 + x112 * x143 + x113 * x144 + x114 * x145 + x115 * x146 ]
   >= 1
 qc4: [ x0 * x74 + x1 * x75 + x2 * x76 + x3 * x77 + x4 * x78 + x5 * x79
   + x6 * x80 + x7 * x81 + x8 * x82 + x9 * x83 + x10 * x84 + x11 * x85
   + x12 * x86 + x13 * x87 + x14 * x88 + x15 * x89 + x16 * x90 + x17 * x91
   + x18 * x92 + x19 * x93 + x20 * x94 + x21 * x95 + x22 * x96 + x23 * x97
   + x24 * x98 + x25 * x99 + x26 * x100 + x27 * x101 + x28 * x102
   + x29 * x103 + x30 * x104 + x31 * x105 + x32 * x106 + x33 * x107
   + x34 * x108 + x35 * x109 + x36 * x110 + x37 * x111 + x38 * x112
   + x39 * x113 + x40 * x114 + x41 * x115 + x42 * x116 + x43 * x117
   + x44 * x118 + x45 * x119 + x46 * x120 + x47 * x121 + x48 * x122
   + x49 * x123 + x50 * x124 + x51 * x125 + x52 * x126 + x53 * x127
   + x54 * x128 + x55 * x129 + x56 * x130 + x57 * x131 + x58 * x132
   + x59 * x133 + x60 * x134 + x61 * x135 + x62 * x136 + x63 * x137
   + x64 * x138 + x65 * x139 + x66 * x140 + x67 * x141 + x68 * x142
   + x69 * x143 + x70 * x144 + x71 * x145 + x72 * x146 ] >= 1
Bounds
Binaries
 x0 x1 x2 x3 x4 x5 x6 x7 x8 x9 x10 x11 x12 x13 x14 x15 x16 x17 x18 x19 x20
 x21 x22 x23 x24 x25 x26 x27 x28 x29 x30 x31 x32 x33 x34 x35 x36 x37 x38
 x39 x40 x41 x42 x43 x44 x45 x46 x47 x48 x49 x50 x51 x52 x53 x54 x55 x56
 x57 x58 x59 x60 x61 x62 x63 x64 x65 x66 x67 x68 x69 x70 x71 x72 x73 x74
 x75 x76 x77 x78 x79 x80 x81 x82 x83 x84 x85 x86 x87 x88 x89 x90 x91 x92
 x93 x94 x95 x96 x97 x98 x99 x100 x101 x102 x103 x104 x105 x106 x107 x108
 x109 x110 x111 x112 x113 x114 x115 x116 x117 x118 x119 x120 x121 x122 x123
 x124 x125 x126 x127 x128 x129 x130 x131 x132 x133 x134 x135 x136 x137 x138
 x139 x140 x141 x142 x143 x144 x145 x146
End
