logs/drand/qp/drand-05-075-1.log

Gurobi 8.1.1 (win64) logging started 11/27/19 10:49:03

Changed value of parameter LogFile to logs/drand/qp/drand-05-075-1.log
   Prev: gurobi.log  Default: 
Changed value of parameter LogToConsole to 0
   Prev: 1  Min: 0  Max: 1  Default: 1
Changed value of parameter TimeLimit to 3600.0
   Prev: 1e+100  Min: 0.0  Max: 1e+100  Default: 1e+100
Optimize a model with 1 rows, 147 columns and 1 nonzeros
Model has 5 quadratic constraints
Variable types: 0 continuous, 147 integer (147 binary)
Coefficient statistics:
  Matrix range     [1e+00, 1e+00]
  QMatrix range    [1e+00, 1e+00]
  Objective range  [1e+00, 1e+00]
  Bounds range     [1e+00, 1e+00]
  RHS range        [1e+00, 1e+00]
  QRHS range       [1e+00, 1e+00]
Found heuristic solution: objective 147.0000000
Presolve removed 1 rows and 1 columns
Presolve time: 0.00s
Presolved: 0 rows, 146 columns, 0 nonzeros
Variable types: 0 continuous, 146 integer (146 binary)

Root relaxation: objective 1.000000e+00, 0 iterations, 0.00 seconds

    Nodes    |    Current Node    |     Objective Bounds      |     Work
 Expl Unexpl |  Obj  Depth IntInf | Incumbent    BestBd   Gap | It/Node Time

     0     0    2.33333    0    2  147.00000    2.33333  98.4%     -    0s
H    0     0                       7.0000000    2.33333  66.7%     -    0s
     0     0    2.33333    0    2    7.00000    2.33333  66.7%     -    0s
     0     0    2.33333    0    2    7.00000    2.33333  66.7%     -    0s
H    0     0                       6.0000000    2.33333  61.1%     -    0s
     0     2    2.33333    0    2    6.00000    2.33333  61.1%     -    0s
   648   445    5.00000   27  500    6.00000    3.05015  49.2%   3.9    5s
   666   460    3.08742   33  493    6.00000    3.08589  48.6%  26.4   10s
   722   467    3.10528   45  418    6.00000    3.10528  48.2%  72.7   15s
   830   501    3.16319   64  335    6.00000    3.16319  47.3%   111   20s
  1130   481     cutoff  115         6.00000    3.39686  43.4%   105   25s
  1430   528    4.36103   37  523    6.00000    3.46499  42.3%  98.5   30s
  1669   590    4.62029   61  339    6.00000    3.55702  40.7%  98.5   35s
  1955   627    4.84168   71  308    6.00000    3.57850  40.4%  95.4   40s
  2260   713    4.60642   54  394    6.00000    3.65814  39.0%  94.6   45s
  2577   801    4.00000   55  279    6.00000    3.71607  38.1%  92.9   50s
  2850   935    4.00000   52  314    6.00000    3.73523  37.7%  91.9   55s
  3101  1064    4.00000   38  401    6.00000    3.74902  37.5%  91.4   60s
  3447  1198     cutoff   87         6.00000    3.76856  37.2%  90.1   65s
  3642  1263    5.00000   37  384    6.00000    3.78640  36.9%  91.4   70s
  3927  1396    4.98223   64  353    6.00000    3.79862  36.7%  93.5   76s
  4133  1487     cutoff   52         6.00000    3.80607  36.6%  95.2   81s
  4340  1558    4.75415   45  512    6.00000    3.82857  36.2%  96.7   86s
  4577  1637    4.00000   51  331    6.00000    3.85032  35.8%  98.2   92s
  4694  1673    4.85185   51  479    6.00000    3.86215  35.6%  99.3   95s
  5000  1731    4.20876   70  291    6.00000    3.89200  35.1%   100  101s
  5329  1769    4.90391   59  411    6.00000    3.96778  33.9%   100  108s
  5539  1808     cutoff   88         6.00000    3.99819  33.4%   100  112s
  5681  1835    4.91939   58  325    6.00000    4.00000  33.3%   101  116s
  5856  1890    5.00000   49  390    6.00000    4.00000  33.3%   103  121s
  6067  1948    5.00000   52  315    6.00000    4.00000  33.3%   104  126s
  6235  1997    5.00000   57  287    6.00000    4.00000  33.3%   105  130s
  6394  2049    5.00000   53  304    6.00000    4.00000  33.3%   107  135s
  6577  2102    5.00000   54  289    6.00000    4.00000  33.3%   108  140s
  6929  2203    5.00000   49  380    6.00000    4.00000  33.3%   110  149s
  7107  2261    5.00000   53  323    6.00000    4.00000  33.3%   111  153s
  7299  2329    5.00000   49  339    6.00000    4.00000  33.3%   111  159s
  7500  2398    5.00000   45  473    6.00000    4.00000  33.3%   112  163s
  7677  2465    4.82964   49  458    6.00000    4.00000  33.3%   113  167s
  7884  2543     cutoff   58         6.00000    4.00000  33.3%   113  171s
  8039  2562    4.95440   60  404    6.00000    4.02336  32.9%   114  175s
  8422  2544     cutoff   59         6.00000    4.07246  32.1%   114  181s
  8501  2503     cutoff   60         6.00000    4.14854  30.9%   114  185s
  8864  2544    4.30160   86  340    6.00000    4.28571  28.6%   112  190s
  9206  2606     cutoff   38         6.00000    4.36576  27.2%   111  196s
  9369  2639     cutoff   83         6.00000    4.40000  26.7%   111  200s
  9713  2683     cutoff   40         6.00000    4.45181  25.8%   110  205s
 10088  2640     cutoff   47         6.00000    4.50370  24.9%   108  210s
 10392  2554     cutoff   62         6.00000    4.54687  24.2%   107  215s
 10956  2148     cutoff   64         6.00000    4.67016  22.2%   104  220s
 11348  1947     cutoff   76         6.00000    4.75000  20.8%   102  226s
 11652  1780     cutoff   52         6.00000    4.80078  20.0%   101  231s
 12088  1479     cutoff   54         6.00000    4.86027  19.0%  98.9  235s
 12814   853     cutoff   65         6.00000    5.00000  16.7%  94.8  240s
 12940   727     cutoff   51         6.00000    5.00000  16.7%  96.5  246s
 13024   643     cutoff   55         6.00000    5.00000  16.7%  98.0  250s
 13150   517     cutoff   54         6.00000    5.00000  16.7%   100  256s
 13234   433     cutoff   54         6.00000    5.00000  16.7%   102  260s
 13360   307     cutoff   55         6.00000    5.00000  16.7%   104  267s
 13444   223     cutoff   51         6.00000    5.00000  16.7%   105  272s
 13528   139     cutoff   44         6.00000    5.00000  16.7%   107  277s
 13612    55     cutoff   53         6.00000    5.00000  16.7%   109  282s
 13654    13     cutoff   51         6.00000    5.00000  16.7%   110  285s

Cutting planes:
  Gomory: 4
  Flow cover: 5
  Zero half: 128

Explored 13709 nodes (1524900 simplex iterations) in 286.89 seconds
Thread count was 4 (of 4 available processors)

Solution count 3: 6 7 147 

Optimal solution found (tolerance 1.00e-04)
Best objective 6.000000000000e+00, best bound 6.000000000000e+00, gap 0.0000%
Warning: Q constraint 0 doesn't have a name
